WARNING: for repeatability, setting FPU to use double precision
============================[ Problem Statistics ]=============================
|                                                                             |
|  Number of variables:         54258                                         |
|  Number of clauses:          160467                                         |
|  Parse time:                   0.03 s                                       |
|                                                                             |
c ============================[ Search Statistics ]==============================
c | Conflicts |          ORIGINAL         |          LEARNT          | Progress |
c |           |    Vars  Clauses Literals |    Limit  Clauses Lit/Cl |          |
c ===============================================================================
c Switched to VSIDS.
c Switched to LRB.
c Switched to VSIDS.
c Switched to LRB.
c Switched to VSIDS.
c Switched to LRB.
c Switched to VSIDS.
c Switched to LRB.
c Switched to VSIDS.
c Switched to LRB.
c Switched to VSIDS.
c Switched to LRB.
c Switched to VSIDS.
c Switched to LRB.
c Switched to VSIDS.
c Switched to LRB.
c Switched to VSIDS.
c Switched to LRB.
c Switched to VSIDS.
c Switched to LRB.
c Switched to VSIDS.
c Switched to LRB.
c Switched to VSIDS.
c ===============================================================================
restarts                  : 8053
conflicts                 : 1322555        (1292 /sec)
decisions                 : 7596686        (0.00 % random) (7419 /sec)
propagations              : 2593313240     (2532605 /sec)
conflict literals         : 255178368      (28.60 % deleted)

conflicts w/ DIP found    : 953874         (72.12 % of conflicts)
conflicts w/ dangerous DIP: 0              (0.00 % of conflicts)
conflicts w/ DIP-learning : 3080           (0.23 % of conflicts)
decisions on ext vars     : 33260          (0.44 % of decisions)
total ext vars            : 397         
tried delete ext vars     : 36          
deleted ext vars          : 36          
max ext vars              : 361         

Memory used               : 240.00 MB
CPU time                  : 1023.97 s
DIP computation time      : 31.4873 s (3.08 % of total time)
ER_sel time               : 2.4572 s
ER_add time               : 0.003629 s
ER_delC time              : 0 s
ER_delV time              : 0.001477 s
ER_sub time               : 3.12243 s
ER_stat time              : 0 s

UNSATISFIABLE
